%block ChemicalSpeciesLabel
  1   8   O.lda
  2   1   H.lda
%endblock ChemicalSpeciesLabel

