# The electrode is a regular SIESTA run with transiesta 
SolutionMethod diagon

# To capture the periodicity in the transport direction we
# need ALOT of k-points in the transport direction
%block kgrid_Monkhorst_Pack
  1    0    0    0.0
  0    1    0    0.0
  0    0  100    0.0
%endblock kgrid_Monkhorst_Pack

# Regular SIESTA options:

MD.TypeOfRun CG
MD.NumCGsteps     0

SystemName Carbon chain
SystemLabel elec

NumberOfAtoms 4
NumberOfSpecies 1

%block LatticeVectors
    12.0000      0.0000      0.0000
     0.0000     12.0000      0.0000
     0.0000      0.0000      5.6800
%endblock LatticeVectors

%block ChemicalSpeciesLabel
 1  6  C
%endblock ChemicalSpeciesLabel

LatticeConstant 1.0 Ang
AtomicCoordinatesFormat Ang
%block AtomicCoordinatesAndAtomicSpecies
     0.0000      0.0000      0.0000   1  #  1
     0.0000      0.0000      1.4200   1  #  2
     0.0000      0.0000      2.8400   1  #  3
     0.0000      0.0000      4.2600   1  #  4
%endblock AtomicCoordinatesAndAtomicSpecies

MeshCutoff 200. Ry
DM.MixingWeight 0.2
DM.NumberPulay 4
