SystemName       c-BN exp. latt.   # Descriptive name of the system
SystemLabel            c-BN           # Short name for naming files

# Output options

WriteCoorStep  .true.
WriteMullikenPop       1    

# Species and atoms

NumberOfSpecies        2       
NumberOfAtoms          2      
%block ChemicalSpeciesLabel
  1  5  B
  2  7  N
%endblock ChemicalSpeciesLabel

# Basis

PAO.EnergyShift       200 meV
PAO.BasisSize         DZP

LatticeConstant       3.615 Ang  

%block LatticeVectors          
 0.00000   0.500000  0.500000
 0.50000   0.000000  0.500000 
 0.50000   0.500000  0.000000
%endblock LatticeVectors

KgridCutoff          10. Ang

xc.functional         GGA           # Exchange-correlation functional
xc.authors            PBE           # Exchange-correlation version
MeshCutoff           140. Ry        # Mesh cutoff. real space mesh 

# SCF options
MaxSCFIterations       40           # Maximum number of SCF iter
DM.MixingWeight       0.1           # New DM amount for next SCF cycle
DM.Tolerance          1.d-4         # Tolerance in maximum difference
                                    # between input and output DM
DM.UseSaveDM          true          # to use continuation files
DM.NumberPulay         5

SolutionMethod        diagon        # OrderN or Diagon
ElectronicTemperature  25 meV       # Temp. for Fermi smearing

# Atomic coordinates
AtomicCoordinatesFormat     ScaledCartesian
%block AtomicCoordinatesAndAtomicSpecies
  0.000000000000    0.000000000000    0.000000000000  1
  0.250000000000    0.250000000000    0.250000000000  2
%endblock AtomicCoordinatesAndAtomicSpecies

# Calculation of dielectric function
OpticalCalculation .true.
Optical.Broaden  0.2 eV
%block Optical.Mesh 
      15  15  15
%endblock Optical.Mesh
Optical.OffsetMesh .true.
Optical.NumberOfBands 10
Optical.PolarizationType polarized
%block Optical.Vector
    1.000 0.000 0.000
%endblock Optical.Vector

