# Here we list the options used for
# transiesta.
SolutionMethod transiesta

# Regular SIESTA options:

MD.TypeOfRun CG
MD.NumCGsteps     0

SystemName Carbon chain
SystemLabel chain

LatticeConstant 1.0 Ang
%block LatticeVectors
    12.0000      0.0000      0.0000
     0.0000     12.0000      0.0000
     0.0000      0.0000     28.4000
%endblock LatticeVectors

NumberOfSpecies 1
%block ChemicalSpeciesLabel
1  6  C
%endblock ChemicalSpeciesLabel

NumberOfAtoms 20
AtomicCoordinatesFormat Ang
%block AtomicCoordinatesAndAtomicSpecies
   0.000   0.000    0.0000  1  # 1
   0.000   0.000    1.4200  1  # 2
   0.000   0.000    2.8400  1  # 3
   0.000   0.000    4.2600  1  # 4
   0.000   0.000    5.6800  1  # 5
   0.000   0.000    7.1000  1  # 6
   0.000   0.000    8.5200  1  # 7
   0.000   0.000    9.9400  1  # 8
   0.000   0.000   11.3600  1  # 9
   0.000   0.000   12.7800  1  # 10
   0.000   0.000   14.2000  1  # 11
   0.000   0.000   15.6200  1  # 12
   0.000   0.000   17.0400  1  # 13
   0.000   0.000   18.4600  1  # 14
   0.000   0.000   19.8800  1  # 15
   0.000   0.000   21.3000  1  # 16
   0.000   0.000   22.7200  1  # 17
   0.000   0.000   24.1400  1  # 18
   0.000   0.000   25.5600  1  # 19
   0.000   0.000   26.9800  1  # 20
%endblock AtomicCoordinatesAndAtomicSpecies

%block kgrid_Monkhorst_Pack
  1 0 0 0.
  0 1 0 0.
  0 0 1 0.
%endblock kgrid_Monkhorst_Pack

MeshCutoff 200. Ry
DM.MixingWeight 0.2
DM.NumberPulay 4


TS.Voltage    0.00000 eV

%block TS.ChemPots
  Left
  Right
%endblock TS.ChemPots

%block TS.ChemPot.Left
  mu V/2
  contour.eq
    begin
      c-Left
      t-Left
    end
%endblock TS.ChemPot.Left
%block TS.ChemPot.Right
  mu -V/2
  contour.eq
    begin
      c-Right
      t-Right
    end
%endblock TS.ChemPot.Right

TS.Elecs.Bulk true
TS.Elecs.DM.Update cross-terms
TS.Elecs.GF.ReUse true
%block TS.Elecs
  Left
  Right
%endblock TS.Elecs

%block TS.Elec.Left
  HS elec/elec.TSHS
  chem-pot Left
  semi-inf-dir -a3
  elec-pos begin 1
%endblock TS.Elec.Left

%block TS.Elec.Right
  HS elec/elec.TSHS
  chem-pot Right
  semi-inf-dir +a3
  elec-pos end -1
%endblock TS.Elec.Right

TS.Contours.Eq.Pole    2.50000 eV
%block TS.Contour.c-Left
  part circle
   from  -30.00000 eV + V/2 to -10. kT + V/2
    points 30
     method g-legendre
%endblock TS.Contour.c-Left
%block TS.Contour.t-Left
  part tail
   from prev to inf
    points 8
     method g-fermi
%endblock TS.Contour.t-Left
%block TS.Contour.c-Right
  part circle
   from  -30.00000 eV - V/2 to -10. kT - V/2
    points 30
     method g-legendre
%endblock TS.Contour.c-Right
%block TS.Contour.t-Right
  part tail
   from prev to inf
    points 8
     method g-fermi
%endblock TS.Contour.t-Right

TS.Elecs.Eta    0.0001000000 eV
%block TS.Contours.nEq
  neq
%endblock TS.Contours.nEq
%block TS.Contour.nEq.neq
  part line
   from -|V|/2 - 5 kT to |V|/2 + 5 kT
    delta 0.01 eV
     method mid-rule
%endblock TS.Contour.nEq.neq



# TBtrans options
TBT.DOS.GF true

TBT.Elecs.Eta    0.0001000000 eV
%block TBT.Contours
  neq
%endblock TBT.Contours

%block TBT.Contour.neq
  part line
   from  -10.00000 eV to   10.00000 eV
    delta    0.05 eV
     method mid-rule
%endblock TBT.Contour.neq
