#General system specifications
SystemName          CH3 molecule
SystemLabel         ch3
NumberOfAtoms       4
NumberOfSpecies     2

%block ChemicalSpeciesLabel
 1  6 C      # Species index, atomic number, species label
 2  1 H      # Species index, atomic number, species label
%endblock ChemicalSpeciesLabel


# Basis set definition
PAO.EnergyShift 200 meV
PAO.SplitNorm   0.15
PAO.BasisSize   DZP

#Atomic coordinates
AtomicCoordinatesFormat  Ang

%block AtomicCoordinatesAndAtomicSpecies
    0.02088760    0.02088714   -0.29121489   1  C
    1.08698535   -0.26624925   -0.24725790   2  H 
   -0.26624937    1.08698563   -0.24725791   2  H         
   -0.75546282   -0.75546274   -0.40463117   2  H          
%endblock AtomicCoordinatesAndAtomicSpecies


#Real space grid 
MeshCutoff 125.0 Ry

# Convergence of SCF 
MaxSCFIterations 50
DM.MixingWeight  0.4
DM.NumberPulay  2

# Type of solution (diagon is the  default for less than 100 atoms)
SolutionMethod diagon

#Spin polarization
 SpinPolarized .true.


#3DPlots
SaveRho .true.
%block LocalDensityOfStates
 -6.00  -3.00 eV
%endblock LocalDensityOfStates
