%block ChemicalSpeciesLabel
  1   8   O.soft
  2   1   H.soft
%endblock ChemicalSpeciesLabel

