%block ChemicalSpeciesLabel
  1   8   O.hard
  2   1   H.hard
%endblock ChemicalSpeciesLabel

