SystemName       BN-monolayer
SystemLabel      BN           # Short name for naming files

NumberOfSpecies        2       
%block ChemicalSpeciesLabel
  1   5   B 
  2   7   N 
%endblock ChemicalSpeciesLabel
PAO.EnergyShift       50 meV
PAO.BasisSize         DZP

NumberOfAtoms          50

LatticeConstant    4.7148685600  Bohr

%block LatticeVectors
   5.0000000000     0.0000000000     0.0000000000
  -2.4999998453     4.3301271082     0.0000000000
   0.0000001074     0.0000001860     4.0080000000
%endblock LatticeVectors

AtomicCoordinatesFormat  NotScaledCartesianBohr

%block AtomicCoordinatesAndAtomicSpecies
  -2.3574345232    -6.8053267212     0.0000000000      1
  -4.7148687546    -5.4442613770     0.0000000000      2
  -4.7148686573    -2.7221306885     0.0000000000      1
  -7.0723028887    -1.3610653442     0.0000000000      2
  -7.0723027914     1.3610653442     0.0000000000      1
  -9.4297370228     2.7221306885     0.0000000000      2
  -9.4297369256     5.4442613770     0.0000000000      1
 -11.7871711570     6.8053267212     0.0000000000      2
 -11.7871710597     9.5274574097     0.0000000000      1
 -14.1446052911    10.8885227539     0.0000000000      2
   2.3574340369    -6.8053267212     0.0000000000      1
  -0.0000001945    -5.4442613770     0.0000000000      2
  -0.0000000972    -2.7221306885     0.0000000000      1
  -2.3574343287    -1.3610653442     0.0000000000      2
  -2.3574342314     1.3610653442     0.0000000000      1
  -4.7148684628     2.7221306885     0.0000000000      2
  -4.7148683655     5.4442613770     0.0000000000      1
  -7.0723025969     6.8053267212     0.0000000000      2
  -7.0723024997     9.5274574097     0.0000000000      1
  -9.4297367311    10.8885227539     0.0000000000      2
   7.0723025969    -6.8053267212     0.0000000000      1
   4.7148683655    -5.4442613770     0.0000000000      2
   4.7148684628    -2.7221306885     0.0000000000      1
   2.3574342314    -1.3610653442     0.0000000000      2
   2.3574343287     1.3610653442     0.0000000000      1
   0.0000000972     2.7221306885     0.0000000000      2
   0.0000001945     5.4442613770     0.0000000000      1
  -2.3574340369     6.8053267212     0.0000000000      2
  -2.3574339396     9.5274574097     0.0000000000      1
  -4.7148681710    10.8885227539     0.0000000000      2
  11.7871711570    -6.8053267212     0.0000000000      1
   9.4297369256    -5.4442613770     0.0000000000      2
   9.4297370228    -2.7221306885     0.0000000000      1
   7.0723027914    -1.3610653442     0.0000000000      2
   7.0723028887     1.3610653442     0.0000000000      1
   4.7148686573     2.7221306885     0.0000000000      2
   4.7148687546     5.4442613770     0.0000000000      1
   2.3574345232     6.8053267212     0.0000000000      2
   2.3574346204     9.5274574097     0.0000000000      1
   0.0000003890    10.8885227539     0.0000000000      2
  16.5020397170    -6.8053267212     0.0000000000      1
  14.1446054856    -5.4442613770     0.0000000000      2
  14.1446055829    -2.7221306885     0.0000000000      1
  11.7871713515    -1.3610653442     0.0000000000      2
  11.7871714487     1.3610653442     0.0000000000      1
   9.4297372173     2.7221306885     0.0000000000      2
   9.4297373146     5.4442613770     0.0000000000      1
   7.0723030832     6.8053267212     0.0000000000      2
   7.0723031805     9.5274574097     0.0000000000      1
   4.7148689491    10.8885227539     0.0000000000      2
%endblock AtomicCoordinatesAndAtomicSpecies
MD.TypeOfRun           FC
MD.FCfirst             25
MD.FClast              26
MD.FCdispl             0.0400000000  Bohr
# KgridCutoff          15. Ang
%block kgrid_Monkhorst_Pack
  4  0  0  0.   #
  0  4  0  0.   #
  0  0  1  0.   #
%endblock kgrid_Monkhorst_Pack
#
# -- dynamical part
MD.TypeOfRun     FC                # Default value
MD.VariableCell   F
MD.NumCGsteps    50
MD.MaxStressTol    0.5 GPa       #  Default: 1.0 GPa
MD.MaxForceTol     0.02 eV/Ang   #  Default: 0.04 eV/Ang

XC.functional         LDA           # Exchange-correlation functional
XC.authors            CA            # Exchange-correlation version
MeshCutoff           150. Ry        # Mesh cutoff. real space mesh 
