# Water ice-VIII structure at 0.1 GPa

LatticeConstant 1.0 Bohr
%block LatticeVectors
  8.407395  0.000000   0.000000 
  0.000000  8.407395   0.000000
  0.000000  0.000000  12.118818
%endblock LatticeVectors

NumberOfAtoms    24 
AtomicCoordinatesFormat  Bohr
%block AtomicCoordinatesAndAtomicSpecies
    0.000277469       4.818633031       9.639501248   2
    0.000253880       6.305641268      10.772926653   1
    0.000273732       7.792611077       9.639496822   2
    2.716988941       6.305640020       0.551094733   2
    4.203866434       6.305619206       1.684413595   1
    5.690735796       6.305650100       0.551103683   2
    4.203932836       4.818610634       8.538777810   2
    4.203929122       6.305612595       7.405328794   1
    4.203907770       7.792584686       8.538768055   2
    4.203899851       0.614967419       3.580027483   2
    4.203919289       2.101932277       4.713489474   1
    4.203920298       3.588930103       3.580084620   2
    0.000290467       0.615000357       2.479358374   2
    0.000252529       2.101966523       1.345909699   1
    0.000274230       3.588972651       2.479297776   2
    2.717007161       2.102023334      11.567734829   2
    4.203882609       2.101930450      10.434406756   1
    5.690765302       2.101993047      11.567715569   2
   -1.486664263       6.305661505       5.508284554   2
    0.000187337       6.305643191       4.374919122   1
    1.487098370       6.305630829       5.508231284   2
   -1.486651984       2.101999301       6.610563787   2
    1.487107477       2.101989495       6.610606516   2
    0.000204545       2.101937835       7.743927902   1
%endblock AtomicCoordinatesAndAtomicSpecies

