# Water ice-XI structure at 0.1 GPa

LatticeConstant   1.0 Bohr
%block LatticeVectors
   17.151518      -0.076830      -0.000000
   -4.321148       7.497693       0.000000
   -0.000000       0.000000      13.942186
%endblock LatticeVectors

NumberOfAtoms   12
AtomicCoordinatesFormat   Bohr
%block AtomicCoordinatesAndAtomicSpecies
    0.001534220       5.003299199       0.878717879   1
   -1.534759429       4.147867324       0.230424269   2
   -0.085891426       6.764816042       0.247367998   2
    4.276463783       2.482301207       7.812264055   1
    4.304576687       0.692548030       7.259567948   2
    4.261529844       2.436342416       9.685596420   2
    4.249244066       2.458306384      -0.878369495   1
    2.767538864       3.415684235      -0.247947840   2
    5.757380310       3.362758666      -0.230575378   2
   -0.032842675       4.992293005       6.130128715   1
    0.013246167       4.982380789       4.256756579   2
    1.502599054       4.071651483       6.681574602   2
%endblock AtomicCoordinatesAndAtomicSpecies

