%block ChemicalSpeciesLabel
  1   8   O.VV
  2   1   H.VV
%endblock ChemicalSpeciesLabel

