%block ChemicalSpeciesLabel
  1   8   O.LMKLL
  2   1   H.LMKLL
%endblock ChemicalSpeciesLabel

