System_Name  GeSi7 cubic cell
SystemLabel GeSi7
Lattice_constant 1.000 Bohr
%block Lattice_vectors
  10.292233548       0.000001893       0.000000582  
   0.000001893      10.292233579       0.000000141  
   0.000000582       0.000000141      10.292233345  
%endblock Lattice_vectors
Number_of_species  2
%block Chemical_species_label
  1  14   Si
  2  32   Ge
%endblock Chemical_species_label
%block AtomicMass
  1  28.09
  2  72.59
%endblock AtomicMass
Atomic_coordinates_format  NotScaledCartesianBohr
NumberOfAtoms   8
%block Atomic_Coordinates_Origin
     0.000  0.000  0.000
%endblock Atomic_Coordinates_Origin
%block Atomic_Coordinates_and_Atomic_Species
  -0.000001356       0.000000751      -0.000000980  2  72.59
   2.610317403       2.610317613       2.610317706  1  28.09
   0.000001037       5.146117200       5.146117801  1  28.09
   2.610312833       7.681923581       7.681924039  1  28.09
   5.146117395       0.000000243       5.146117999  1  28.09
   7.681922437       2.610313972       7.681923040  1  28.09
   5.146117833       5.146118105      -0.000001803  1  28.09
   7.681919820       7.681920089       2.610316895  1  28.09
%endblock Atomic_Coordinates_and_Atomic_Species
%block BandLines
  1  0.  0.  0.
%endblock BandLines
Eigenvectors      T

PAO.BasisType  split
PAO.EnergyShift 0.020 Ry
%block PAO.Basis
 Si  2   0.0
   n=3  0  2  P
     0.0  0.0
   n=3  1  2  P
     0.0  0.0
 Ge  3   0.0
   n=4  0  2  P
     0.0  0.0
   n=4  1  2  P
     0.0  0.0
   n=3  2  2
     0.0  0.0
%EndBlock PAO.Basis
# Basis: Si, TZTP long, optimized for bulk Si
#%Block PAO.Basis
#Si   3     -0.09599
# n=3   0   3   E    10.26587     1.49258
#     7.88483     4.16563     1.79271
#     1.00000     1.00000     1.00000
# n=3   1   3   E    15.41438     5.15217
#     7.73689     5.34361     3.97693
#     1.00000     1.00000     1.00000
# n=3   2   3   E   104.95418     2.59128
#     5.52399     3.11035     1.92248
#     1.00000     1.00000     1.00000
#%EndBlock PAO.Basis
#kgrid_cutoff     6.0 Ang
#kgrid_cutoff    20.0 Ang  #  makes 6 divisions -> 108 k-points
 kgrid_cutoff    20.0 Ang
#kgrid_cutoff   12.0 Ang  #
#kgrid_cutoff     6.0 Ang
#%block kgrid_Monkhorst_Pack
#   6  0  0  0.   #
#   0  6  0  0.   #
#   0  0  6  0.   #
#%endblock kgrid_Monkhorst_Pack
%block GridCellSampling
  0.5   0.0   0.0
  0.0   0.5   0.0
  0.0   0.0   0.5
  0.0   0.5   0.5
  0.5   0.0   0.5
  0.5   0.5   0.0
  0.5   0.5   0.5
%endblock GridCellSampling
#
#  dynamical part
MD.TypeOfRun     FC
MD.VariableCell   F
MD.TargetPressure  0.001 GPa
MD.NumCGsteps    50
MD.FCfirst        1
#
# -- I/O part
UseSaveData       T
MD.UseSaveXV      F
MD.UseSaveCG      F
# -- Output part
LongOutput        F
WriteCoorStep     F
WriteMullikenPop  0
WriteMDhistory    T
WriteMDXmol       T
#
#
XC.functional         LDA           # Exchange-correlation functional
XC.authors            CA            # Exchange-correlation version
MeshCutoff           300.0   Ry
NetCharge              0.00
MaxSCFIterations      100
DM.NumberPulay          3
DM.MixSCF1              F
DM.PulayOnFile          T
DM.MixingWeight        .05
DM.NumberKick           0
DM.KickMixingWeight    .40
DM.Tolerance          .1000000000E-03     # Default value
