SystemName         hcp MgB2 
SystemLabel        mgb2 

LatticeConstant       1.00 Ang  
%block LatticeParameters
  3.6474  3.6474  5.7306  90.0  90.0  120.0
%endblock LatticeParameters
NumberOfSpecies        2       
NumberOfAtoms          3      
%block ChemicalSpeciesLabel
  1  12  Mg
  2   5   B
%endblock ChemicalSpeciesLabel
AtomicCoordinatesFormat     Fractional    
%block AtomicCoordinatesAndAtomicSpecies
  0.000        0.000        0.0  1 
  0.33333333   0.66666667   0.5  2 
  0.66666667   0.33333333   0.5  2 
%endblock AtomicCoordinatesAndAtomicSpecies
#kgrid.cutoff   12.0 Ang
%block kgrid_Monkhorst_Pack
   20  0   0   0.0
   0  20   0   0.0
   0   0  16   0.0
%endblock kgrid_Monkhorst_Pack

PAO.BasisType   split
PAO.BasisSize   DZP
PAO.EnergyShift 0.010 Ry

#%block ProjectedDensityOfStates
#  -10.0  20.0  0.2  601   eV
#%endblock ProjectedDensityOfStates
# -- dynamical part
MD.TypeOfRun         CG                # Default value
#MD.InitialTimeStep    1
#MD.FinalTimeStep     30
#MD.LengthtimeStep   1.0 fs
MD.VariableCell   T
MD.NumCGsteps    30
UseSaveData       T
MD.UseSaveXV      T
WriteMDhistory    T

xc.functional         LDA 
xc.authors            CA  

SpinPolarized         F
MeshCutoff           150. Ry        # Mesh cutoff. real space mesh 
MaxSCFIterations      100   
DM.MixingWeight       0.1   
DM.UseSaveDM           T

DM.NumberPulay         3

ElectronicTemperature  300 K
MD.TypeOfRun           CG    
MD.NumCGsteps           0   

