#General system specifications
SystemName          CH3 molecule
SystemLabel         ch3
NumberOfAtoms       4
NumberOfSpecies     2

%block ChemicalSpeciesLabel
 1  6 C      # Species index, atomic number, species label
 2  1 H      # Species index, atomic number, species label
%endblock ChemicalSpeciesLabel


# Basis set definition
PAO.EnergyShift 200 meV
PAO.SplitNorm   0.15
PAO.BasisSize   SZ

#Atomic coordinates
AtomicCoordinatesFormat  Ang

%block AtomicCoordinatesAndAtomicSpecies
    0.02054366    0.02154414   -0.28817404   1           
    1.14124241   -0.28910200   -0.24418642   2           
   -0.28910189    1.17124204   -0.24418644   2          
   -0.81722091   -0.81722091   -0.41404854   2
%endblock AtomicCoordinatesAndAtomicSpecies


#Real space grid 
MeshCutoff 125.0 Ry

# Convergence of SCF 
MaxSCFIterations 50
DM.MixingWeight  0.4
DM.NumberPulay  2

# Type of solution (diagon is the  default for less than 100 atoms)
SolutionMethod diagon

#Geometrical optimization
MD.TypeOfRun CG
MD.NumCGsteps  50
MD.MaxCGDispl         0.1 Bohr
MD.MaxForceTol        0.04d0 eV/Ang

#Spin polarization
 SpinPolarized .true.

save-rho T
save-delta-rho T
save-total-potential T

Write.Denchar T
#------------------------------------------
Denchar.TypeOfRun      3D

Denchar.PlotCharge          T

Denchar.CoorUnits       bohr           # Format for coordinate of the points
                                       # Bohr
                                       # Ang

Denchar.DensityUnits   Ele/bohr**3     # Units of Charge Density
                                       # Ele/bohr**3
                                       # Ele/Ang**3
                                       # Ele/UnitCell

Denchar.MinX           -9.0  bohr      # Minimum coord of the window in X-dir
Denchar.MaxX            9.0  bohr      # Maximum coord of the window in X-dir

Denchar.MinY           -9.0  bohr      # Minimum coord of the window in Y-dir
Denchar.MaxY            9.0  bohr      # Maximum coord of the window in Y-dir

Denchar.MinZ           -7.0  bohr      # Minimum coord of the window in Z-dir
Denchar.MaxZ            7.0  bohr      # Maximum coord of the window in Z-dir

Denchar.NumberPointsX    50            # Number of points in X-axis
Denchar.NumberPointsY    50            # Number of points in Y-axis
Denchar.NumberPointsZ    50            # Number of points in Z-axis

