#
# General system descriptors
#

SystemName	BaTiO3 bulk
#               tetragonal structure.
#               a imposed by SrTiO3 substrate.
#               c relaxed
#               400 Ry + 7 internal points
#               6 x 6 x 6; 0.5 0.5 0.5 MP mesh
SystemLabel	BaTiO3
NumberOfAtoms    5
NumberOfSpecies	 3
%block ChemicalSpeciesLabel
      1      56     Ba
      2      22     Ti
      3       8     O
%endblock ChemicalSpeciesLabel

#
# Basis definition
#

PAO.BasisType    split
block PAO.Basis < BaTiO3basis.fdf
%block PS.lmax
   Ba    3
   Ti    3
    O    3
%endblock PS.lmax


# Lattice, coordinates, k-sampling
#

LatticeConstant      3.874 Ang     # Theoretical lattice constant of SrTiO3
%block LatticeVectors
  1.00  0.00  0.00
  0.00  1.00  0.00
  0.00  0.00  1.032830
%endblock LatticeVectors

AtomicCoordinatesFormat		    Fractional
%block AtomicCoordinatesAndAtomicSpecies 
   0.0   0.0   0.0     1
   0.5   0.5   0.5     2
   0.5   0.5   0.0     3
   0.5   0.0   0.5     3
   0.0   0.5   0.5     3
%endblock AtomicCoordinatesAndAtomicSpecies 

%block kgrid_Monkhorst_Pack
   6   0   0    0.5
   0   6   0    0.5
   0   0   6    0.5
%endblock kgrid_Monkhorst_Pack

#
# DFT, Grid, SCF
#

XC.Functional          LDA
XC.Authors             CA                 # CA = Ceperley-Alder
SpinPolarized          .false.
MeshCutoff             400 Ry
%block GridCellSampling
 0.5  0.0  0.0
 0.0  0.5  0.0
 0.0  0.0  0.5
 0.0  0.5  0.5
 0.5  0.0  0.5
 0.5  0.5  0.0
 0.5  0.5  0.5
%endblock GridCellSampling


DM.MixingWeight        0.050       # New DM amount for next SCF cycle
DM.Tolerance           1.d-4       # Tolerance in maximum difference
                                   # between input and output DM
DM.NumberPulay         3
MaxSCFIterations       100

#
# Eigenvalue problem: order-N or diagonalization
#

SolutionMethod         diagon
ElectronicTemperature  100 K

#
# Molecular dynamics and relaxations
#

MD.TypeOfRun            cg          # Type of dynamics:
                                    #   - CG
                                    #   - Verlet
                                    #   - Nose
                                    #   - Parrinello-Rahman
                                    #   - Nose-Parrinello-Rahman
                                    #   - Anneal
                                    #   - FC
MD.VariableCell         .false.     # The lattice is relaxed together with
                                    # the atomic coordinates?
MD.NumCGsteps            0          # Number of CG steps for
                                    #   coordinate optimization
MD.MaxCGDispl           0.3 Bohr    # Maximum atomic displacement
                                    #   in one CG step
MD.MaxForceTol          0.01 eV/Ang # Tolerance in the maximum
                                    #   atomic force
MD.MaxStressTol         0.0001 eV/Ang**3    # Tolerance in the maximum
                                    #   stress in a MD.VariableCell CG optimi.
#
# Parallel options
#

#ParallelOverK           .true. 
#BlockSize               36
#ProcessorY             2

#
# Output options
#

LongOutput              .false.
WriteCoorStep           .true.
WriteForces             .true.
WriteMullikenPop        1            # Write Mulliken Population Analysis
                                     #   - 0 = None
                                     #   - 1 = atomic and orbital charges
                                     #   - 2 = 1 + atomic overlap population
                                     #   - 3 = 2 + orbital overlap population
WriteCoorXmol           .false.
WriteMDCoorXmol         .false.
WriteMDhistory          .false.
WriteEigenvalues        .false.
AllocReportLevel        2            # Sets the level of the allocation report
                                     #   - 0 = No report at all (default)
                                     #   - 1 = Only total memory peak and where
                                     #         it ocurred
                                     #   - 2 = detailed report printed only 
                                     #         at normal program termination
                                     #   - 3 = detailed report printed at
                                     #         every new memory peak
                                     #   - 4 = print every individual
                                     #         (re)allocation or deallocation

#
# Options for saving/reading information
#

DM.UseSaveDM            .true.       # Use DM Continuation files
MD.UseSaveXV            .false.      # Use stored positions and velocities
MD.UseSaveCG            .false.      # Use CG history information
SaveRho                 .false.      # Write valence pseudocharge at the mesh
SaveDeltaRho            .false.      # Write RHOscf-RHOatm at the mesh
SaveElectrostaticPotential .false.   # Write the total elect. pot. at the mesh
SaveTotalPotential      .false.      # Write the total pot. at the mesh
SaveTotalCharge         .false.
SaveIonicCharge         .false. 
#WriteSiestaDim         .false.      # Write minimum dim to siesta.h and stop
#WriteDenchar           .false.      # Write information for DENCHAR
WriteXML                .false.      # Write output in XML


%block PAO.Basis
Ba    5      0.70
 n=5    0    1   E     98.95      5.90
   6.39899920099572
   1.00000000000000
 n=6    0    2   E     97.95      6.50
   6.99956358549850        5.99949655050583
   1.00000000000000        1.00000000000000
 n=5    1    1   E     96.95      6.09
   6.59922580635556
   1.00000000000000
 n=5    2    1   E     95.95      6.60
   7.09995685034315
   1.00000000000000
 n=6    1    1   E     94.96      6.60
   7.09996103032325
   1.00000000000000
Ti    5      1.91
 n=3    0    1   E     93.95      5.20
   5.69946662616249
   1.00000000000000
 n=3    1    1   E     95.47      5.20
   5.69941339465994
   1.00000000000000
 n=4    0    2   E     96.47      5.60
   6.09996398975307        5.09944363262274
   1.00000000000000        1.00000000000000
 n=3    2    2   E     46.05      4.95
   5.94327035784617        4.70009988294302
   1.00000000000000        1.00000000000000
 n=4    1    1   E      0.50      1.77
   3.05365979938936
   1.00000000000000
O     3     -0.28
 n=2    0    2   E     40.58      3.95
   4.95272270428712        3.60331408800389
   1.00000000000000        1.00000000000000
 n=2    1    2   E     36.78      4.35
   4.99990228025066        3.89745395068600
   1.00000000000000        1.00000000000000
 n=3    2    1   E     21.69      0.93
   2.73276990670788
   1.00000000000000
%EndBlock PAO.Basis
