SystemName       BN-monolayer
SystemLabel      BN           # Short name for naming files

NumberOfSpecies        2       
NumberOfAtoms          2      
%block ChemicalSpeciesLabel
  1   5   B 
  2   7   N 
%endblock ChemicalSpeciesLabel
PAO.EnergyShift       50 meV
PAO.BasisSize         DZP

LatticeConstant      2.495 Ang  
%block LatticeParameters       
  1.00   1.00   4.008   90.  90.  120. 
%endblock LatticeParameters       

AtomicCoordinatesFormat     Fractional    
%block AtomicCoordinatesAndAtomicSpecies
  0.666666666667    0.333333333333    0.000000000000  1 
  0.333333333333    0.666666666667    0.000000000000  2 
%endblock AtomicCoordinatesAndAtomicSpecies

# KgridCutoff          15. Ang
%block kgrid_Monkhorst_Pack
  8  0  0  0.   #
  0  8  0  0.   #
  0  0  1  0.   #
%endblock kgrid_Monkhorst_Pack
#
# -- dynamical part
MD.TypeOfRun     FC                # Default value
MD.VariableCell   F
MD.NumCGsteps    50
MD.MaxStressTol    0.5 GPa       #  Default: 1.0 GPa
MD.MaxForceTol     0.02 eV/Ang   #  Default: 0.04 eV/Ang

XC.functional         LDA           # Exchange-correlation functional
XC.authors            CA            # Exchange-correlation version
MeshCutoff           150. Ry        # Mesh cutoff. real space mesh 
