NumberOfAtoms 32
NumberOfSpecies 1
LatticeConstant 1.0 Ang
%block LatticeVectors
     2.456000000      0.000000000      0.000000000 
     0.000000000     14.000000000      0.000000000 
     0.000000000      0.000000000     34.032000000 
%endblock LatticeVectors
AtomicCoordinatesFormat  Ang
%block AtomicCoordinatesAndAtomicSpecies
     0.000000000      0.000000000      0.000000000 1
     0.000000000      0.000000000      1.418000000 1
     1.228000000      0.000000000      2.127000000 1
     1.228000000      0.000000000      3.545000000 1
     0.000000000      0.000000000      4.254000000 1
     0.000000000      0.000000000      5.672000000 1
     1.228000000      0.000000000      6.381000000 1
     1.228000000      0.000000000      7.799000000 1
     0.000000000      0.000000000      8.508000000 1
     0.000000000      0.000000000      9.926000000 1
     1.228000000      0.000000000     10.635000000 1
     1.228000000      0.000000000     12.053000000 1
     0.000000000      0.000000000     12.762000000 1
     0.000000000      0.000000000     14.180000000 1
     1.228000000      0.000000000     14.889000000 1
     1.228000000      0.000000000     16.307000000 1
     0.000000000      0.000000000     17.016000000 1
     0.000000000      0.000000000     18.434000000 1
     1.228000000      0.000000000     19.143000000 1
     1.228000000      0.000000000     20.561000000 1
     0.000000000      0.000000000     21.270000000 1
     0.000000000      0.000000000     22.688000000 1
     1.228000000      0.000000000     23.397000000 1
     1.228000000      0.000000000     24.815000000 1
     0.000000000      0.000000000     25.524000000 1
     0.000000000      0.000000000     26.942000000 1
     1.228000000      0.000000000     27.651000000 1
     1.228000000      0.000000000     29.069000000 1
     0.000000000      0.000000000     29.778000000 1
     0.000000000      0.000000000     31.196000000 1
     1.228000000      0.000000000     31.905000000 1
     1.228000000      0.000000000     33.323000000 1
%endblock AtomicCoordinatesAndAtomicSpecies
