# K-points
# For graphene, k-points are very important
%block kgrid_Monkhorst_Pack
10 0  0 0.0
 0 1  0 0.0
 0 0 10 0.0
%endblock kgrid_Monkhorst_Pack

# Here we list the options used for
# transiesta.
SolutionMethod transiesta


# Regular SIESTA options:

MD.TypeOfRun CG
MD.NumCGsteps 0

SystemName Square graphene lattice
SystemLabel graphene

LatticeConstant 1.0 Ang

NumberOfSpecies 1
%block ChemicalSpeciesLabel
1 6 C
%endblock ChemicalSpeciesLabel

AtomicCoordinatesFormat Ang

# Include either zigzag or armchair
# You decide.
# If you have time, try both and test
# their separate convergence :)

#%include armchair.fdf
#%include zigzag.fdf


# These below lines are the basis of
# each directions square unit-cell.

#NumberOfAtoms 4
# This is basis for ARMCHAIR
#%block LatticeVectors
# 2.456 0.000 0.000
# 0.000 14.000 0.000
# 0.000 0.000 4.254
#%endblock LatticeVectors
#%block AtomicCoordinatesAndAtomicSpecies
# 0.000 0.000 0.000 1
# 0.000 0.000 1.418 1
# 1.228 0.000 2.127 1
# 1.228 0.000 3.545 1
#%endblock AtomicCoordinatesAndAtomicSpecies

# This is basis for ZIGZAG
#%block LatticeVectors
# 4.254 0.000 0.000
# 0.000 14.000 0.000
# 0.000 0.000 2.456
#%endblock LatticeVectors
#%block AtomicCoordinatesAndAtomicSpecies
# 0.000 0.000 0.000 1
# 1.418 0.000 0.000 1
# 2.127 0.000 1.228 1
# 3.545 0.000 1.228 1
#%endblock AtomicCoordinatesAndAtomicSpecies

MeshCutoff 200. Ry
DM.MixingWeight 0.2
DM.NumberPulay 4

%block TBT.kgrid_Monkhorst_Pack
 10 0 0 0.
 0 1 0 0.
 0 0 1 0.
%endblock TBT.kgrid_Monkhorst_Pack


TS.Voltage    0.00000 eV

%block TS.ChemPots
  Left
  Right
%endblock TS.ChemPots

%block TS.ChemPot.Left
  mu V/2
  contour.eq
    begin
      c-Left
      t-Left
    end
%endblock TS.ChemPot.Left
%block TS.ChemPot.Right
  mu -V/2
  contour.eq
    begin
      c-Right
      t-Right
    end
%endblock TS.ChemPot.Right

TS.Elecs.Bulk true
TS.Elecs.DM.Update cross-terms
TS.Elecs.GF.ReUse true
%block TS.Elecs
  Left
  Right
%endblock TS.Elecs

%block TS.Elec.Left
  HS elec/elec.TSHS
  chem-pot Left
  semi-inf-dir -a3
  elec-pos begin 1
%endblock TS.Elec.Left

%block TS.Elec.Right
  HS elec/elec.TSHS
  chem-pot Right
  semi-inf-dir +a3
  elec-pos end -1
%endblock TS.Elec.Right

TS.Contours.Eq.Pole    2.50000 eV
%block TS.Contour.c-Left
  part circle
   from  -30.00000 eV + V/2 to -10. kT + V/2
    points 30
     method g-legendre
%endblock TS.Contour.c-Left
%block TS.Contour.t-Left
  part tail
   from prev to inf
    points 8
     method g-fermi
%endblock TS.Contour.t-Left
%block TS.Contour.c-Right
  part circle
   from  -30.00000 eV - V/2 to -10. kT - V/2
    points 30
     method g-legendre
%endblock TS.Contour.c-Right
%block TS.Contour.t-Right
  part tail
   from prev to inf
    points 8
     method g-fermi
%endblock TS.Contour.t-Right

TS.Elecs.Eta    0.0001000000 eV
%block TS.Contours.nEq
  neq
%endblock TS.Contours.nEq
%block TS.Contour.nEq.neq
  part line
   from -|V|/2 - 5 kT to |V|/2 + 5 kT
    delta 0.01 eV
     method mid-rule
%endblock TS.Contour.nEq.neq



# TBtrans options
TBT.DOS.GF true

TBT.Elecs.Eta    0.0001000000 eV
%block TBT.Contours
  neq
%endblock TBT.Contours

%block TBT.Contour.neq
  part line
   from   -2.00000 eV to    2.00000 eV
    delta    0.02649 eV
     method mid-rule
%endblock TBT.Contour.neq
