NumberOfAtoms 40
NumberOfSpecies 1
LatticeConstant 1.0 Ang
%block LatticeVectors
     4.254000000      0.000000000      0.000000000 
     0.000000000     14.000000000      0.000000000 
     0.000000000      0.000000000     24.560000000 
%endblock LatticeVectors
AtomicCoordinatesFormat  Ang
%block AtomicCoordinatesAndAtomicSpecies
     0.000000000      0.000000000      0.000000000 1
     1.418000000      0.000000000      0.000000000 1
     2.127000000      0.000000000      1.228000000 1
     3.545000000      0.000000000      1.228000000 1
     0.000000000      0.000000000      2.456000000 1
     1.418000000      0.000000000      2.456000000 1
     2.127000000      0.000000000      3.684000000 1
     3.545000000      0.000000000      3.684000000 1
     0.000000000      0.000000000      4.912000000 1
     1.418000000      0.000000000      4.912000000 1
     2.127000000      0.000000000      6.140000000 1
     3.545000000      0.000000000      6.140000000 1
     0.000000000      0.000000000      7.368000000 1
     1.418000000      0.000000000      7.368000000 1
     2.127000000      0.000000000      8.596000000 1
     3.545000000      0.000000000      8.596000000 1
     0.000000000      0.000000000      9.824000000 1
     1.418000000      0.000000000      9.824000000 1
     2.127000000      0.000000000     11.052000000 1
     3.545000000      0.000000000     11.052000000 1
     0.000000000      0.000000000     12.280000000 1
     1.418000000      0.000000000     12.280000000 1
     2.127000000      0.000000000     13.508000000 1
     3.545000000      0.000000000     13.508000000 1
     0.000000000      0.000000000     14.736000000 1
     1.418000000      0.000000000     14.736000000 1
     2.127000000      0.000000000     15.964000000 1
     3.545000000      0.000000000     15.964000000 1
     0.000000000      0.000000000     17.192000000 1
     1.418000000      0.000000000     17.192000000 1
     2.127000000      0.000000000     18.420000000 1
     3.545000000      0.000000000     18.420000000 1
     0.000000000      0.000000000     19.648000000 1
     1.418000000      0.000000000     19.648000000 1
     2.127000000      0.000000000     20.876000000 1
     3.545000000      0.000000000     20.876000000 1
     0.000000000      0.000000000     22.104000000 1
     1.418000000      0.000000000     22.104000000 1
     2.127000000      0.000000000     23.332000000 1
     3.545000000      0.000000000     23.332000000 1
%endblock AtomicCoordinatesAndAtomicSpecies
