SolutionMethod diagon

SystemName  Periodic gold electrode in the 111 direction
SystemLabel elec

# Number of species 
NumberOfSpecies 1
%block ChemicalSpeciesLabel
  1  79 Au 
%endblock ChemicalSpeciesLabel

XC.functional         LDA           # Exchange-correlation functional
XC.authors            CA
PAO.BasisSize    SZP
PAO.EnergyShift  0.005 Ry

# K-points
%block kgrid_Monkhorst_Pack
 4   0   0   0.0
 0   4   0   0.0
 0   0   60  0.5
%endblock kgrid_Monkhorst_Pack

LatticeConstant       2.92311 Ang
%block LatticeVectors
  1.000   0.000   0.000
  0.500   0.866   0.000
  0.000   0.000   2.448
%endblock LatticeVectors 

# Atomic coordinates
NumberOfAtoms 3
AtomicCoordinatesFormat ScaledCartesian 
%block AtomicCoordinatesAndAtomicSpecies
       0.000       0.000       0.000    1
       0.500       0.289       0.816    1 
       0.500      -0.289       1.632    1 
%endblock AtomicCoordinatesAndAtomicSpecies

# Small electrode, faster parallelization with many k-points:
Diag.ParallelOverK    yes

MeshCutoff 350. Ry
MD.TypeOfRun CG
MD.NumCGsteps     0
DM.NumberPulay         5

Diag.DivideAndConquer     no
