### Transiesta options
SolutionMethod transiesta

# TBtrans k-grid
%block TBT.k
 12 0 0 0.
 0 12 0 0.
 0 0 1 0.
%endblock TBT.k


# SIESTA options

SystemName Gold 111 with stacking fault
SystemLabel stackingfault

NumberOfSpecies 1
%block ChemicalSpeciesLabel
1 79 Au
%endblock ChemicalSpeciesLabel

XC.functional LDA # Exchange-correlation functional
XC.authors CA
PAO.BasisSize SZP
PAO.EnergyShift 0.005 Ry
SCF.H.Tolerance 0.01 eV

# K-points
%block kgrid_Monkhorst_Pack
4 0 0 0.0
0 4 0 0.0
0 0 5 0.0
%endblock kgrid_Monkhorst_Pack


LatticeConstant 2.92311 Ang
%block LatticeVectors
1.000 0.000 0.000
0.500 0.866 0.000
0.000 0.000 10.608
%endblock LatticeVectors

NumberOfAtoms 13
AtomicCoordinatesFormat ScaledCartesian
%block AtomicCoordinatesAndAtomicSpecies
0.000 0.000 0.000 1 # A
0.500 0.289 0.816 1 # B
0.500 -0.289 1.632 1 # C
0.000 0.000 2.448 1 # A
0.500 0.289 3.264 1 # B
0.500 -0.289 4.080 1 # C
0.500 0.289 4.896 1 # B
0.000 0.000 5.712 1 # A
0.500 0.289 6.528 1 # B
0.500 -0.289 7.344 1 # C
0.000 0.000 8.160 1 # A
0.500 0.289 8.976 1 # B
0.500 -0.289 9.792 1 # C
%endblock AtomicCoordinatesAndAtomicSpecies

Diag.DivideAndConquer no
# Faster parallelization
Diag.ParallelOverK yes

DM.UseSaveDM T
DM.MixingWeight 0.03
DM.NumberPulay 5
DM.MixSCF1 T
MeshCutoff 350. Ry
MD.TypeOfRun CG
MD.NumCGsteps 000


TS.Voltage 0.50000 eV

%block TS.ChemPots
Left
Right
%endblock TS.ChemPots

%block TS.ChemPot.Left
mu V/2
contour.eq
begin
c-Left
t-Left
end
%endblock TS.ChemPot.Left
%block TS.ChemPot.Right
mu -V/2
contour.eq
begin
c-Right
t-Right
end
%endblock TS.ChemPot.Right

TS.Elecs.Bulk true
TS.Elecs.DM.Update cross-terms
TS.Elecs.GF.ReUse true
TS.Elecs.Neglect.Principal true
%block TS.Elecs
Left
Right
%endblock TS.Elecs

%block TS.Elec.Left
HS elec/elec.TSHS
chem-pot Left
semi-inf-dir -a3
elec-pos begin 1
%endblock TS.Elec.Left

%block TS.Elec.Right
HS elec/elec.TSHS
chem-pot Right
semi-inf-dir +a3
elec-pos end -1
%endblock TS.Elec.Right

TS.Contours.Eq.Pole 2.50000 eV
%block TS.Contour.c-Left
part circle
from -30.00000 eV + V/2 to -10. kT + V/2
points 30
method g-legendre
%endblock TS.Contour.c-Left
%block TS.Contour.t-Left
part tail
from prev to inf
points 10
method g-fermi
%endblock TS.Contour.t-Left
%block TS.Contour.c-Right
part circle
from -30.00000 eV - V/2 to -10. kT - V/2
points 30
method g-legendre
%endblock TS.Contour.c-Right
%block TS.Contour.t-Right
part tail
from prev to inf
points 10
method g-fermi
%endblock TS.Contour.t-Right

TS.Elecs.Eta 0.0001000000 eV
%block TS.Contours.nEq
neq
%endblock TS.Contours.nEq
%block TS.Contour.nEq.neq
part line
from -|V|/2 - 5 kT to |V|/2 + 5 kT
delta 0.02083 eV
method mid-rule
%endblock TS.Contour.nEq.neq



# TBtrans options

TBT.Elecs.Eta 0.0001000000 eV
%block TBT.Contours
neq
%endblock TBT.Contours

%block TBT.Contour.neq
part line
from -0.50000 eV to 0.50000 eV
delta 0.00990 eV
method mid-rule
%endblock TBT.Contour.neq
