# This will let you easily
# create a twice as long electrode by
# changing the last 1 to 2.
%block SuperCell 
  1 0 0
  0 1 0
  0 0 2
%endblock SuperCell

# K-points
# For graphene, k-points are very important
%block kgrid_Monkhorst_Pack
 10   0   0   0.0
  0   1   0   0.0
  0   0  50   0.0
%endblock kgrid_Monkhorst_Pack

SolutionMethod diagon
MD.TypeOfRun CG
MD.NumCGsteps     0

SystemName Square graphene lattice
SystemLabel elec

LatticeConstant 1.0 Ang

NumberOfSpecies 1
%block ChemicalSpeciesLabel
1  6  C
%endblock ChemicalSpeciesLabel

AtomicCoordinatesFormat  Ang



NumberOfAtoms 4
# This is basis for ZIGZAG
%block LatticeVectors
     4.254      0.000      0.000
     0.000     14.000      0.000 
     0.000      0.000      2.456
%endblock LatticeVectors
%block AtomicCoordinatesAndAtomicSpecies
     0.000    0.000   0.000  1 
     1.418    0.000   0.000  1 
     2.127    0.000   1.228  1 
     3.545    0.000   1.228  1
%endblock AtomicCoordinatesAndAtomicSpecies


MeshCutoff 200. Ry
DM.MixingWeight 0.2
DM.NumberPulay 4
