#General system specifications
SystemName          CH3 molecule
SystemLabel         ch3
NumberOfAtoms       4
NumberOfSpecies     2

%block ChemicalSpeciesLabel
 1  6 C      # Species index, atomic number, species label
 2  1 H      # Species index, atomic number, species label
%endblock ChemicalSpeciesLabel


# Basis set definition
PAO.EnergyShift 200 meV
PAO.SplitNorm   0.15
PAO.BasisSize   SZ

#Atomic coordinates
AtomicCoordinatesFormat  Ang

%block AtomicCoordinatesAndAtomicSpecies
    0.02154366    0.02154414   -0.28817404   1           
    1.17124241   -0.28910200   -0.24418642   2           
   -0.28910189    1.17124204   -0.24418644   2          
   -0.81722091   -0.81722091   -0.41404854   2
%endblock AtomicCoordinatesAndAtomicSpecies


#Real space grid 
MeshCutoff 125.0 Ry

# Convergence of SCF 
MaxSCFIterations 50
DM.MixingWeight  0.4
DM.NumberPulay  2

# Type of solution (diagon is the  default for less than 100 atoms)
SolutionMethod diagon

#Geometrical optimization
MD.TypeOfRun CG
MD.NumCGsteps  50
MD.MaxCGDispl         0.1 Bohr
MD.MaxForceTol        0.04d0 eV/Ang

#Spin polarization
 SpinPolarized .true.
%block DM.InitSpin 
 1 0.0
 2 0.0
 3 0.0
 4 0.0
%endblock DM.InitSpin




