SystemName          Benzene
SystemLabel         C6H6             # Short name for naming files

NumberOfAtoms           12            # Number of atoms
NumberOfSpecies         2           # Number of species

%block Chemical_Species_Label
  1    6    C
  2    1    H
%endblock Chemical_Species_Label

PAO.BasisSize   SZ

AtomicCoordinatesFormat Ang
AtomicCoordinatesAndAtomicSpecies < relax-system.fdf

%block LatticeVectors
  1.000000  0.000000  0.000000
  0.000000  1.000000  0.000000
  0.000000  0.000000  1.000000
%endblock LatticeVectors

LatticeConstant        10.0000    Ang

MeshCutoff           400. Ry

xc.functional         LDA
xc.authors            CA

SolutionMethod        diagon        # OrderN or Diagon

MaxSCFIterations      100
DM.MixingWeight       0.20
DM.Tolerance          1.d-4
DM.NumberPulay         4
ElectronicTemperature  300 K

DM.UseSaveDM          true

MD.TypeOfRun           FC
MD.NumCGsteps          20
MD.FCDispl             0.03 Ang

