In this File you have to upload the relaxed coordinates obtained
from the MD run (with option CG).

You can find thge relaxed coordinates in the output file, just after the line : 

"outcoor: Relaxed atomic coordinates (Ang)"

Here you have an example of the file : 

%block AtomicCoordinatesAndAtomicSpecies
   -0.00000001    1.44290297    0.00000000   1       1  C
    1.24960964    0.72146527    0.00000000   1       2  C
    1.24960967   -0.72146523    0.00000000   1       3  C
   -0.00000002   -1.44290297    0.00000000   1       4  C
   -1.24960962   -0.72146524   -0.00000001   1       5  C
   -1.24960965    0.72146530    0.00000000   1       6  C
    0.00000000    2.62676574    0.00000000   2       7  H
    2.27417591    1.31356238    0.00000000   2       8  H
    2.27417590   -1.31356238    0.00000000   2       9  H
    0.00000000   -2.62676571    0.00000000   2      10  H
   -2.27417590   -1.31356238    0.00000000   2      11  H
   -2.27417593    1.31356240    0.00000000   2      12  H
%endblock AtomicCoordinatesAndAtomicSpecies


 
