SystemName          graphene + benzene 
SystemLabel         graph_C6H6

NumberOfAtoms           62            # Number of atoms
NumberOfSpecies         2            # Number of species

%block Chemical_Species_Label
  1    6    C
  2    1    H
%endblock Chemical_Species_Label

PAO.BasisSize   SZ

%block Zmatrix
molecule
# Nspecies i  j  k   r     a       t     ifr ifa ift
     1     0  0  0  0.00 1.396    zm1     0   0   1
     1     1  0  0  CC    90.0   -60.0    0   0   0
     1     2  1  0  CC     CCC    90.0    0   0   0
     1     3  2  1  CC     CCC     0.0    0   0   0
     1     4  3  2  CC     CCC     0.0    0   0   0
     1     5  4  3  CC     CCC     0.0    0   0   0
     2     1  2  3  CH     CCH   180.0    0   0   0
     2     2  1  7  CH     CCH     0.0    0   0   0
     2     3  2  8  CH     CCH     0.0    0   0   0
     2     4  3  9  CH     CCH     0.0    0   0   0
     2     5  4  10 CH     CCH     0.0    0   0   0
     2     6  5  11 CH     CCH     0.0    0   0   0
cartesian
 1   -7.79941320326530       0.000000000000000E+000  0.000000000000000E+000   0 0 0
 1   -9.21748831324190       0.000000000000000E+000  0.000000000000000E+000   0 0 0
 1   -5.67230051370190       -1.22808908925970       0.000000000000000E+000   0 0 0
 1   -7.09037562367850       -1.22808908925970       0.000000000000000E+000   0 0 0
 1   -3.54518782413850       -2.45617817857230       0.000000000000000E+000   0 0 0
 1   -4.96326293411510       -2.45617817857230       0.000000000000000E+000   0 0 0
 1   -1.41807513457510       -3.68426726783200       0.000000000000000E+000   0 0 0
 1   -2.83615024455170       -3.68426726783200       0.000000000000000E+000   0 0 0
 1   0.709037554988300       -4.91235635714460       0.000000000000000E+000   0 0 0
 1  -0.709037554988300       -4.91235635714460       0.000000000000000E+000   0 0 0
 1   -5.67230051370190        1.22808908925970       0.000000000000000E+000   0 0 0
 1   -7.09037562367850        1.22808908925970       0.000000000000000E+000   0 0 0
 1   -3.54518782413850       0.000000000000000E+000  0.000000000000000E+000   0 0 0
 1   -4.96326293411510       0.000000000000000E+000  0.000000000000000E+000   0 0 0
 1   -1.41807513457510       -1.22808908925970       0.000000000000000E+000   0 0 0
 1   -2.83615024455170       -1.22808908925970       0.000000000000000E+000   0 0 0
 1   0.709037554988300       -2.45617817857230       0.000000000000000E+000   0 0 0
 1  -0.709037554988300       -2.45617817857230       0.000000000000000E+000   0 0 0
 1    2.83615024455170       -3.68426726783200       0.000000000000000E+000   0 0 0
 1    1.41807513457510       -3.68426726783200       0.000000000000000E+000   0 0 0
 1   -3.54518782413850        2.45617817857230       0.000000000000000E+000   0 0 0
 1   -4.96326293411510        2.45617817857230       0.000000000000000E+000   0 0 0
 1   -1.41807513457510        1.22808908925970       0.000000000000000E+000   0 0 0
 1   -2.83615024455170        1.22808908925970       0.000000000000000E+000   0 0 0
 1   0.709037554988300       0.000000000000000E+000  0.000000000000000E+000   0 0 0
 1  -0.709037554988300       0.000000000000000E+000  0.000000000000000E+000   0 0 0
 1    2.83615024455170       -1.22808908925970       0.000000000000000E+000   0 0 0
 1    1.41807513457510       -1.22808908925970       0.000000000000000E+000   0 0 0
 1    4.96326293411510       -2.45617817857230       0.000000000000000E+000   0 0 0
 1    3.54518782413850       -2.45617817857230       0.000000000000000E+000   0 0 0
 1   -1.41807513457510        3.68426726783200       0.000000000000000E+000   0 0 0
 1   -2.83615024455170        3.68426726783200       0.000000000000000E+000   0 0 0
 1   0.709037554988300        2.45617817857230       0.000000000000000E+000   0 0 0
 1  -0.709037554988300        2.45617817857230       0.000000000000000E+000   0 0 0
 1    2.83615024455170        1.22808908925970       0.000000000000000E+000   0 0 0
 1    1.41807513457510        1.22808908925970       0.000000000000000E+000   0 0 0
 1    4.96326293411510       0.000000000000000E+000  0.000000000000000E+000   0 0 0
 1    3.54518782413850       0.000000000000000E+000  0.000000000000000E+000   0 0 0
 1    7.09037562367850       -1.22808908925970       0.000000000000000E+000   0 0 0
 1    5.67230051370190       -1.22808908925970       0.000000000000000E+000   0 0 0
 1   0.709037554988300        4.91235635714460       0.000000000000000E+000   0 0 0
 1  -0.709037554988300        4.91235635714460       0.000000000000000E+000   0 0 0
 1    2.83615024455170        3.68426726783200       0.000000000000000E+000   0 0 0
 1    1.41807513457510        3.68426726783200       0.000000000000000E+000   0 0 0
 1    4.96326293411510        2.45617817857230       0.000000000000000E+000   0 0 0
 1    3.54518782413850        2.45617817857230       0.000000000000000E+000   0 0 0
 1    7.09037562367850        1.22808908925970       0.000000000000000E+000   0 0 0
 1    5.67230051370190        1.22808908925970       0.000000000000000E+000   0 0 0
 1    9.21748831324190       0.000000000000000E+000  0.000000000000000E+000   0 0 0
 1    7.79941320326530       0.000000000000000E+000  0.000000000000000E+000   0 0 0
variables                                                                  
    zm1 1.95                                                               
constants
    CC 1.417                                                               
    CH 1.112                                                               
    CCH 120.0
    CCC 120.0
%endblock Zmatrix

ZM.UnitsLength     Ang
ZM.UnitsAngle      deg
ZM.MaxDisplLength  0.2 Ang
ZM.MaxDisplAngle   0.5 deg


LatticeConstant    4.6430589387  Bohr

%block LatticeVectors
   4.3301270000     2.5000000000     0.0000000000
   4.3301270000    -2.5000000000     0.0000000000
   0.0000000000     0.0000000000     10.0000000000
%endblock LatticeVectors

MeshCutoff           200. Ry

xc.functional         LDA
xc.authors            CA

SolutionMethod        diagon        # OrderN or Diagon

MaxSCFIterations      100
DM.MixingWeight       0.20
DM.Tolerance          5.d-4
DM.NumberPulay         4
ElectronicTemperature  300 K

DM.UseSaveDM          true

MD.TypeOfRun           cg           # Type of dynamics:
MD.NumCGsteps          20
MD.MaxForceTol         0.04  eV/Ang
WriteCoorXmol

